SAT
-1 -18 100 -12 -59 58 89 77 -62 35 -57 -56 15 90 -19 -2 -94 -51 74 -63 27 61 -79 95 52 72 39 -36 42 47 21 -78 -96 48 -20 8 43 -4 11 -83 -99 -23 -22 92 6 -3 7 -30 38 -68 -9 5 71 97 -50 -46 -29 54 70 85 -91 -66 -17 67 28 88 -87 -76 33 49 -73 98 -32 24 69 31 80 14 45 75 -84 55 -82 -53 -16 25 -65 -34 -37 81 40 10 -64 -41 60 -26 93 -86 13 44 0
